1635 3035
4674 4994
206 1864
2778 3955
626 623
4152 5144
5543 4433
3908 1672
4691 8720
2593 3870
5405 5814
7214 4887
8832 6293
7176 601
6516 3088
1948 2109
4976 1753
4175 7403
3944 3833
5034 1727
5779 5399
5935 3837
3605 4928
3050 6567
6957 3845
34 2547
513 4632
6411 5694
1042 1354
135 7160
4752 6517
4350 8853
2503 7270
1626 1096
8858 1106
3367 4214
2456 5535
2149 2299
3958 2754
4389 6086
877 7589
4263 5452
5939 2518
3125 5711
9390 2512
1883 3235
1398 4563
4349 6101
1726 2302
63 3250
